p cnf 98 610
-20 -21 0
-20 -22 0
-20 -23 0
-20 -24 0
-20 -25 0
-20 -26 0
-21 -22 0
-21 -23 0
-21 -24 0
-21 -25 0
-21 -26 0
-22 -23 0
-22 -24 0
-22 -25 0
-22 -26 0
-23 -24 0
-23 -25 0
-23 -26 0
-24 -25 0
-24 -26 0
-25 -26 0
20 21 22 23 24 25 26 0
-27 -28 0
-27 -29 0
-27 -30 0
-27 -31 0
-27 -32 0
-27 -33 0
-28 -29 0
-28 -30 0
-28 -31 0
-28 -32 0
-28 -33 0
-29 -30 0
-29 -31 0
-29 -32 0
-29 -33 0
-30 -31 0
-30 -32 0
-30 -33 0
-31 -32 0
-31 -33 0
-32 -33 0
27 28 29 30 31 32 33 0
-34 -35 0
-34 -36 0
-34 -37 0
-34 -38 0
-34 -39 0
-34 -40 0
-35 -36 0
-35 -37 0
-35 -38 0
-35 -39 0
-35 -40 0
-36 -37 0
-36 -38 0
-36 -39 0
-36 -40 0
-37 -38 0
-37 -39 0
-37 -40 0
-38 -39 0
-38 -40 0
-39 -40 0
34 35 36 37 38 39 40 0
-20 -27 0
-20 -34 0
-27 -34 0
-21 -28 0
-21 -35 0
-28 -35 0
-22 -29 0
-22 -36 0
-29 -36 0
-23 -30 0
-23 -37 0
-30 -37 0
-24 -31 0
-24 -38 0
-31 -38 0
-25 -32 0
-25 -39 0
-32 -39 0
-26 -33 0
-26 -40 0
-33 -40 0
1 -20 -28 0
1 -20 -35 0
1 -27 -21 0
1 -27 -35 0
1 -34 -21 0
1 -34 -28 0
2 -20 -29 0
2 -20 -36 0
2 -27 -22 0
2 -27 -36 0
2 -34 -22 0
2 -34 -29 0
3 -20 -30 0
3 -20 -37 0
3 -27 -23 0
3 -27 -37 0
3 -34 -23 0
3 -34 -30 0
-20 -31 0
-20 -38 0
-27 -24 0
-27 -38 0
-34 -24 0
-34 -31 0
4 -20 -32 0
4 -20 -39 0
4 -27 -25 0
4 -27 -39 0
4 -34 -25 0
4 -34 -32 0
5 -20 -33 0
5 -20 -40 0
5 -27 -26 0
5 -27 -40 0
5 -34 -26 0
5 -34 -33 0
6 -21 -30 0
6 -21 -37 0
6 -28 -23 0
6 -28 -37 0
6 -35 -23 0
6 -35 -30 0
7 -21 -31 0
7 -21 -38 0
7 -28 -24 0
7 -28 -38 0
7 -35 -24 0
7 -35 -31 0
8 -21 -32 0
8 -21 -39 0
8 -28 -25 0
8 -28 -39 0
8 -35 -25 0
8 -35 -32 0
9 -21 -33 0
9 -21 -40 0
9 -28 -26 0
9 -28 -40 0
9 -35 -26 0
9 -35 -33 0
10 -22 -30 0
10 -22 -37 0
10 -29 -23 0
10 -29 -37 0
10 -36 -23 0
10 -36 -30 0
11 -22 -31 0
11 -22 -38 0
11 -29 -24 0
11 -29 -38 0
11 -36 -24 0
11 -36 -31 0
12 -22 -32 0
12 -22 -39 0
12 -29 -25 0
12 -29 -39 0
12 -36 -25 0
12 -36 -32 0
13 -22 -33 0
13 -22 -40 0
13 -29 -26 0
13 -29 -40 0
13 -36 -26 0
13 -36 -33 0
14 -23 -31 0
14 -23 -38 0
14 -30 -24 0
14 -30 -38 0
14 -37 -24 0
14 -37 -31 0
15 -23 -32 0
15 -23 -39 0
15 -30 -25 0
15 -30 -39 0
15 -37 -25 0
15 -37 -32 0
16 -23 -33 0
16 -23 -40 0
16 -30 -26 0
16 -30 -40 0
16 -37 -26 0
16 -37 -33 0
17 -24 -32 0
17 -24 -39 0
17 -31 -25 0
17 -31 -39 0
17 -38 -25 0
17 -38 -32 0
18 -24 -33 0
18 -24 -40 0
18 -31 -26 0
18 -31 -40 0
18 -38 -26 0
18 -38 -33 0
19 -25 -33 0
19 -25 -40 0
19 -32 -26 0
19 -32 -40 0
19 -39 -26 0
19 -39 -33 0
-41 -42 0
-41 -43 0
-41 -44 0
-41 -45 0
-41 -46 0
-41 -47 0
-41 -48 0
-41 -49 0
-41 -50 0
-42 -43 0
-42 -44 0
-42 -45 0
-42 -46 0
-42 -47 0
-42 -48 0
-42 -49 0
-42 -50 0
-43 -44 0
-43 -45 0
-43 -46 0
-43 -47 0
-43 -48 0
-43 -49 0
-43 -50 0
-44 -45 0
-44 -46 0
-44 -47 0
-44 -48 0
-44 -49 0
-44 -50 0
-45 -46 0
-45 -47 0
-45 -48 0
-45 -49 0
-45 -50 0
-46 -47 0
-46 -48 0
-46 -49 0
-46 -50 0
-47 -48 0
-47 -49 0
-47 -50 0
-48 -49 0
-48 -50 0
-49 -50 0
41 42 43 44 45 46 47 48 49 50 0
-51 -52 0
-51 -53 0
-51 -54 0
-51 -55 0
-51 -56 0
-51 -57 0
-51 -58 0
-51 -59 0
-51 -60 0
-52 -53 0
-52 -54 0
-52 -55 0
-52 -56 0
-52 -57 0
-52 -58 0
-52 -59 0
-52 -60 0
-53 -54 0
-53 -55 0
-53 -56 0
-53 -57 0
-53 -58 0
-53 -59 0
-53 -60 0
-54 -55 0
-54 -56 0
-54 -57 0
-54 -58 0
-54 -59 0
-54 -60 0
-55 -56 0
-55 -57 0
-55 -58 0
-55 -59 0
-55 -60 0
-56 -57 0
-56 -58 0
-56 -59 0
-56 -60 0
-57 -58 0
-57 -59 0
-57 -60 0
-58 -59 0
-58 -60 0
-59 -60 0
51 52 53 54 55 56 57 58 59 60 0
-61 -62 0
-61 -63 0
-61 -64 0
-61 -65 0
-61 -66 0
-61 -67 0
-61 -68 0
-61 -69 0
-62 -63 0
-62 -64 0
-62 -65 0
-62 -66 0
-62 -67 0
-62 -68 0
-62 -69 0
-63 -64 0
-63 -65 0
-63 -66 0
-63 -67 0
-63 -68 0
-63 -69 0
-64 -65 0
-64 -66 0
-64 -67 0
-64 -68 0
-64 -69 0
-65 -66 0
-65 -67 0
-65 -68 0
-65 -69 0
-66 -67 0
-66 -68 0
-66 -69 0
-67 -68 0
-67 -69 0
-68 -69 0
61 62 63 64 65 66 67 68 69 0
-70 -71 0
-70 -72 0
-70 -73 0
-70 -74 0
-70 -75 0
-70 -76 0
-70 -77 0
-70 -78 0
-70 -79 0
-71 -72 0
-71 -73 0
-71 -74 0
-71 -75 0
-71 -76 0
-71 -77 0
-71 -78 0
-71 -79 0
-72 -73 0
-72 -74 0
-72 -75 0
-72 -76 0
-72 -77 0
-72 -78 0
-72 -79 0
-73 -74 0
-73 -75 0
-73 -76 0
-73 -77 0
-73 -78 0
-73 -79 0
-74 -75 0
-74 -76 0
-74 -77 0
-74 -78 0
-74 -79 0
-75 -76 0
-75 -77 0
-75 -78 0
-75 -79 0
-76 -77 0
-76 -78 0
-76 -79 0
-77 -78 0
-77 -79 0
-78 -79 0
70 71 72 73 74 75 76 77 78 79 0
-80 -81 0
-80 -82 0
-80 -83 0
-80 -84 0
-80 -85 0
-80 -86 0
-80 -87 0
-80 -88 0
-80 -89 0
-81 -82 0
-81 -83 0
-81 -84 0
-81 -85 0
-81 -86 0
-81 -87 0
-81 -88 0
-81 -89 0
-82 -83 0
-82 -84 0
-82 -85 0
-82 -86 0
-82 -87 0
-82 -88 0
-82 -89 0
-83 -84 0
-83 -85 0
-83 -86 0
-83 -87 0
-83 -88 0
-83 -89 0
-84 -85 0
-84 -86 0
-84 -87 0
-84 -88 0
-84 -89 0
-85 -86 0
-85 -87 0
-85 -88 0
-85 -89 0
-86 -87 0
-86 -88 0
-86 -89 0
-87 -88 0
-87 -89 0
-88 -89 0
80 81 82 83 84 85 86 87 88 89 0
-90 -91 0
-90 -92 0
-90 -93 0
-90 -94 0
-90 -95 0
-90 -96 0
-90 -97 0
-90 -98 0
-91 -92 0
-91 -93 0
-91 -94 0
-91 -95 0
-91 -96 0
-91 -97 0
-91 -98 0
-92 -93 0
-92 -94 0
-92 -95 0
-92 -96 0
-92 -97 0
-92 -98 0
-93 -94 0
-93 -95 0
-93 -96 0
-93 -97 0
-93 -98 0
-94 -95 0
-94 -96 0
-94 -97 0
-94 -98 0
-95 -96 0
-95 -97 0
-95 -98 0
-96 -97 0
-96 -98 0
-97 -98 0
90 91 92 93 94 95 96 97 98 0
-1 -41 -51 0
-1 -42 -52 0
-1 -43 -53 0
-1 -44 -54 0
-1 -45 -55 0
-1 -46 -56 0
-1 -47 -57 0
-1 -48 -58 0
-1 -49 -59 0
-1 -50 -60 0
-2 -41 -61 0
-2 -42 -62 0
-2 -43 -63 0
-2 -44 -64 0
-2 -45 -65 0
-2 -47 -66 0
-2 -48 -67 0
-2 -49 -68 0
-2 -50 -69 0
-3 -41 -70 0
-3 -42 -71 0
-3 -43 -72 0
-3 -44 -73 0
-3 -45 -74 0
-3 -46 -75 0
-3 -47 -76 0
-3 -48 -77 0
-3 -49 -78 0
-3 -50 -79 0
-4 -41 -80 0
-4 -42 -81 0
-4 -43 -82 0
-4 -44 -83 0
-4 -45 -84 0
-4 -46 -85 0
-4 -47 -86 0
-4 -48 -87 0
-4 -49 -88 0
-4 -50 -89 0
-5 -41 -90 0
-5 -42 -91 0
-5 -43 -92 0
-5 -44 -93 0
-5 -45 -94 0
-5 -46 -95 0
-5 -48 -96 0
-5 -49 -97 0
-5 -50 -98 0
-51 -61 0
-52 -62 0
-53 -63 0
-54 -64 0
-55 -65 0
-57 -66 0
-58 -67 0
-59 -68 0
-60 -69 0
-6 -51 -70 0
-6 -52 -71 0
-6 -53 -72 0
-6 -54 -73 0
-6 -55 -74 0
-6 -56 -75 0
-6 -57 -76 0
-6 -58 -77 0
-6 -59 -78 0
-6 -60 -79 0
-7 -60 0
-8 -51 -80 0
-8 -52 -81 0
-8 -53 -82 0
-8 -54 -83 0
-8 -55 -84 0
-8 -56 -85 0
-8 -57 -86 0
-8 -58 -87 0
-8 -59 -88 0
-8 -60 -89 0
-9 -51 -90 0
-9 -52 -91 0
-9 -53 -92 0
-9 -54 -93 0
-9 -55 -94 0
-9 -56 -95 0
-9 -58 -96 0
-9 -59 -97 0
-9 -60 -98 0
-10 -61 -70 0
-10 -62 -71 0
-10 -63 -72 0
-10 -64 -73 0
-10 -65 -74 0
-10 -66 -76 0
-10 -67 -77 0
-10 -68 -78 0
-10 -69 -79 0
-11 -69 0
-12 -61 -80 0
-12 -62 -81 0
-12 -63 -82 0
-12 -64 -83 0
-12 -65 -84 0
-12 -66 -86 0
-12 -67 -87 0
-12 -68 -88 0
-12 -69 -89 0
-13 -61 -90 0
-13 -62 -91 0
-13 -63 -92 0
-13 -64 -93 0
-13 -65 -94 0
-13 -67 -96 0
-13 -68 -97 0
-13 -69 -98 0
-14 -79 0
-15 -70 -80 0
-15 -71 -81 0
-15 -72 -82 0
-15 -73 -83 0
-15 -74 -84 0
-15 -75 -85 0
-15 -76 -86 0
-15 -77 -87 0
-15 -78 -88 0
-15 -79 -89 0
-16 -70 -90 0
-16 -71 -91 0
-16 -72 -92 0
-16 -73 -93 0
-16 -74 -94 0
-16 -75 -95 0
-16 -77 -96 0
-16 -78 -97 0
-16 -79 -98 0
-17 -89 0
-18 -98 0
-19 -80 -90 0
-19 -81 -91 0
-19 -82 -92 0
-19 -83 -93 0
-19 -84 -94 0
-19 -85 -95 0
-19 -87 -96 0
-19 -88 -97 0
-19 -89 -98 0
